45 
98 
24 
15 
95 
79 
69 
90 
28 
62 
80 
34 
54 
24 
96 
72 
38 
10 
60 
5 
74 
26 
92 
76 
36 
37 
54 
47 
24 
86 
30 
81 
4 
86 
99 
56 
61 
76 
81 
16 
77 
87 
96 
76 
35 
70 
58 
35 
22 
23 
84 
89 
10 
47 
40 
76 
91 
28 
51 
41 

